



11 11
8 10 6 18 2 9 7 16 1 16 5 11 10 18 4 5 3 7 9 14 0 19
4 7 2 17 10 18 1 6 7 7 8 16 9 3 6 12 5 1 3 1 0 5
0 16 10 17 2 16 8 10 9 19 6 15 5 19 3 11 1 17 4 17 7 8
6 9 4 1 5 18 10 12 8 16 3 17 0 7 7 15 1 3 2 8 9 6
7 10 1 11 9 13 2 5 0 1 8 7 5 11 10 15 3 18 6 9 4 15
6 6 3 18 1 17 8 6 5 1 9 10 4 9 2 19 7 15 10 13 0 10
5 16 4 10 8 9 10 19 3 13 7 2 9 18 2 3 6 15 0 3 1 10
6 12 7 16 0 5 1 14 2 9 4 5 10 1 8 1 9 5 5 13 3 6
4 19 6 10 2 1 10 7 7 19 5 18 1 1 3 8 9 12 0 14 8 6
9 8 10 7 7 10 3 17 0 10 4 17 6 19 2 17 1 12 8 11 5 13
3 15 5 10 8 8 6 6 1 10 2 10 10 19 0 16 9 15 4 11 7 19
